41 399
5 6 8 9 11 14 16 19 20 24 27 29 33 35 36 37
2 4 5 11 14 15 18 20 21 24 26 30 31 32 38 39 40
1 4 5 6 8 10 12 13 15 18 23 27 28 33 36 37
4 9 13 14 18 19 21 22 27 28 29 30 34 35 37 40
1 2 3 8 9 11 12 13 14 15 17 18 21 23 25 26 28 30 33
0 1 2 7 9 14 15 20 21 23 24 26 27 28 29 31 37 38 39
0 2 7 8 10 11 13 15 16 18 21 22 23 25 26 28 32 34 36 37 40
5 6 9 10 11 12 14 15 16 17 18 21 22 25 29 32 35 36 37 39
0 2 4 6 9 11 14 15 16 21 23 25 26 30 31 32 35 36 37 38 40
0 3 4 5 7 8 10 11 12 13 17 20 21 22 23 24 25 26 27 28 30 32 33 34 37 38 40
2 6 7 9 12 13 14 17 18 19 20 22 27 28 30 32 33 40
0 1 4 6 7 8 9 12 14 17 18 19 20 22 24 25 27 28 29 34 35 36 37 40
2 4 7 9 10 11 15 24 25 26 27 32 35 36 38 39
2 3 4 6 9 10 15 17 18 21 23 24 26 27 28 29 30 32 35 37 40
0 1 3 4 5 7 8 10 11 19 22 24 26 27 28 29 32 33 34 35 36 39
1 2 4 5 6 7 8 12 13 17 20 21 22 23 25 32 33 34 36 38 39
0 6 7 8 17 18 20 23 24 26 27 28 29 31 33 35 36 37 38 39
4 7 9 10 11 13 15 16 18 20 21 22 24 26 28 29 31 33 35 38 39
1 2 3 4 6 7 10 11 13 16 17 19 20 24 29 35 37 38 40
0 3 10 11 14 18 22 24 27 32 34 35 36
0 1 5 9 10 11 15 16 17 18 21 26 28 29 31 34 36 38
1 3 4 5 6 7 8 9 13 15 17 20 22 26 29 32 33 35 38 40
3 6 7 9 10 11 14 15 17 19 21 23 25 26 29 30 31 33 38
2 4 5 6 8 9 13 15 16 22 24 26 27 29 31 36 38 39 40
0 1 5 9 11 12 13 14 16 17 18 19 23 25 26 27 28 31 32 34 39
4 6 7 8 9 11 12 15 22 24 26 28 33 35 37 38 39 40
1 4 5 6 8 9 12 13 14 16 17 20 21 22 23 24 25 28 31 32 33 34 35 36 39 40
0 2 3 5 9 10 11 12 13 14 16 19 23 24 28 32 34 36 37 38 40
2 3 4 5 6 9 10 11 13 14 16 17 20 24 25 26 27 33 36 38 39
0 3 5 7 11 13 14 16 17 18 20 21 22 23 32 33 36 37 40
1 3 4 8 9 10 13 22 31 33 34 35 36 38
1 5 8 16 17 20 22 23 24 26 30 32 33 35 36 37 39 40
1 6 7 8 9 10 12 13 14 15 19 21 24 26 27 29 31 33 35 36 40
0 2 4 9 10 14 15 16 17 21 22 25 26 28 29 30 31 32 35 36 38 40
3 6 9 11 14 15 19 20 24 26 27 30 37 38 39
0 3 7 8 11 12 13 14 16 17 18 19 21 25 26 30 31 32 33
0 2 6 7 8 11 12 14 15 16 19 20 23 26 27 28 29 30 31 32 33 37 40
0 2 3 5 6 7 8 9 11 13 16 18 25 27 29 31 34 36
1 5 8 9 12 15 16 17 18 20 21 22 23 25 27 28 30 33 34 39 40
1 5 7 12 14 15 16 17 23 24 25 26 28 31 34 38 40
1 3 6 8 9 10 11 13 18 21 23 25 26 27 29 31 32 33 36 38 39
